RAW/CMTQ/fspd-mid/CMT7Q.vrp_seed-9.out
900.6920473	16.071	167.111
