RAW/CMTQ/fspd-mid/CMT7Q.vrp_seed-9.sol
Route #1: 67 34 46 52 4 75
Route #2: 63 23 56 41 43 33 6
Route #3: 17 40 44 3 24 49 16 51
Route #4: 68 62 22 64 42 1 73
Route #5: 37 20 70 60 71 36
Route #6: 38 65 66 11 53 35 8
Route #7: 7 14 59 19 54 13
Route #8: 45 29 48 47 5 15 57 27
Route #9: 9 25 55 18 50 32
Route #10: 26 58 10 31 39 72 12
Route #11: 30 74 21 69 61 28 2
Cost 900.692047